(declare-const x0 Bool)
(declare-const x1 Bool)
(declare-const x2 Bool)
(declare-const x3 Bool)
(declare-const x4 Bool)
(declare-const x5 Bool)
(declare-const x6 Bool)
(declare-const x7 Bool)
(declare-const x8 Bool)
(declare-const x9 Bool)
(declare-const x10 Bool)
(declare-const x11 Bool)
(declare-const x12 Bool)
(declare-const x13 Bool)
(declare-const x14 Bool)
(declare-const x15 Bool)
(declare-const x16 Bool)
(declare-const x17 Bool)
(declare-const x18 Bool)
(declare-const x19 Bool)
(declare-const x20 Bool)
(declare-const x21 Bool)
(declare-const x22 Bool)
(declare-const x23 Bool)
(declare-const x24 Bool)
(declare-const x25 Bool)
(declare-const x26 Bool)
(declare-const x27 Bool)
(declare-const x28 Bool)
(declare-const x29 Bool)
(declare-const x30 Bool)
(declare-const x31 Bool)
(declare-const x32 Bool)
(declare-const x33 Bool)
(declare-const x34 Bool)
(declare-const y0 Real)
(declare-const y1 Real)
(declare-const y2 Real)
(declare-const y3 Real)
(declare-const y4 Real)
(declare-const y5 Real)
(declare-const y6 Real)
(declare-const y7 Real)
(declare-const y8 Real)
(assert (and (= x3 x29) (= y5 (+ y1 y2))))
(assert (or (or false x28) (= 63 y7)))
(assert (or (or (or (< y3 86) false) (or false x14)) (< 17 y3)))
(assert (< 67 (+ y2 14)))
(assert (and (and (= 29 y8) x7) (< 60 42)))
(assert (= (< y3 y8) (< (+ y1 y0) y6)))
(assert true)
(assert (or (= (+ (+ 61 4) y5) 76) (= (and false x25) (and (= false true) (or true x26)))))
(assert (< 15 (+ (+ 24 62) 64)))
(assert x8)
(check-sat)
